100 8
532 725
750 481
16 811
440 265
854 526
764 629
846 229
368 830
681 515
511 641
445 712
426 515
534 694
674 440
295 412
120 759
614 830
787 542
282 867
716 599
412 897
157 788
759 219
120 719
383 986
239 142
36 861
411 304
393 591
498 908
508 375
732 569
227 610
680 422
217 439
573 316
399 690
265 500
385 374
779 576
684 490
690 624
628 854
337 832
823 367
356 478
381 403
247 548
268 709
626 468
300 130
334 693
663 533
796 330
248 630
226 110
859 228
696 601
733 511
212 606
462 378
758 537
545 394
258 539
420 802
780 577
172 189
702 575
186 721
423 385
859 458
680 560
859 537
889 448
404 549
357 809
225 136
281 876
542 603
823 655
559 436
740 574
482 253
193 693
461 832
789 320
346 807
286 868
538 875
77 842
599 710
735 593
859 490
649 746
63 802
512 827
365 702
552 371
436 819
693 546
